p edge 140 3136 112
e 1 2
e 1 3
e 1 4
e 1 5
e 1 6
e 1 7
e 1 8
e 1 9
e 1 10
e 1 11
e 1 12
e 1 13
e 1 14
e 1 15
e 1 16
e 1 17
e 1 18
e 1 19
e 1 20
e 1 21
e 1 22
e 1 23
e 1 24
e 1 25
e 1 26
e 1 27
e 1 28
e 1 29
e 1 30
e 1 31
e 1 32
e 1 33
e 1 34
e 1 35
e 1 36
e 1 37
e 1 38
e 1 39
e 1 40
e 1 41
e 1 42
e 1 44
e 1 45
e 1 46
e 1 47
e 1 48
e 1 50
e 1 51
e 1 52
e 1 53
e 1 54
e 1 55
e 1 58
e 1 59
e 1 60
e 1 61
e 1 62
e 1 64
e 1 67
e 1 68
e 1 69
e 1 70
e 1 72
e 1 73
e 1 74
e 1 76
e 1 78
e 1 79
e 1 80
e 1 81
e 1 82
e 1 85
e 1 86
e 1 87
e 1 88
e 1 89
e 1 90
e 1 91
e 1 94
e 1 99
e 1 101
e 1 107
e 1 109
e 1 113
e 1 114
e 1 115
e 1 117
e 1 123
e 1 127
e 1 130
e 1 131
e 1 132
e 1 135
e 1 136
e 1 137
e 1 139
e 2 30
e 2 31
e 2 32
e 2 33
e 2 35
e 2 36
e 2 38
e 2 40
e 2 41
e 2 42
e 2 44
e 2 53
e 2 57
e 2 59
e 2 61
e 2 65
e 2 73
e 2 78
e 2 84
e 2 93
e 2 94
e 2 112
e 2 121
e 2 132
e 3 30
e 3 31
e 3 32
e 3 33
e 3 34
e 3 35
e 3 36
e 3 37
e 3 38
e 3 39
e 3 40
e 3 42
e 3 43
e 3 45
e 3 47
e 3 48
e 3 56
e 3 57
e 3 58
e 3 59
e 3 63
e 3 64
e 3 67
e 3 69
e 3 76
e 3 80
e 3 83
e 3 86
e 3 87
e 3 88
e 3 89
e 3 91
e 3 95
e 3 97
e 3 100
e 3 102
e 3 107
e 3 113
e 3 118
e 3 119
e 3 121
e 3 123
e 3 124
e 3 126
e 3 129
e 3 130
e 3 135
e 3 137
e 4 30
e 4 31
e 4 32
e 4 33
e 4 34
e 4 35
e 4 37
e 4 38
e 4 41
e 4 42
e 4 43
e 4 44
e 4 45
e 4 46
e 4 49
e 4 50
e 4 52
e 4 57
e 4 60
e 4 67
e 4 68
e 4 69
e 4 73
e 4 74
e 4 75
e 4 77
e 4 78
e 4 118
e 4 134
e 4 137
e 5 30
e 5 31
e 5 32
e 5 33
e 5 34
e 5 35
e 5 36
e 5 37
e 5 38
e 5 44
e 5 45
e 5 47
e 5 48
e 5 53
e 5 56
e 5 57
e 5 59
e 5 60
e 5 63
e 5 68
e 5 70
e 5 74
e 5 77
e 5 84
e 5 87
e 5 89
e 5 92
e 5 95
e 5 97
e 5 100
e 5 102
e 5 104
e 5 105
e 5 107
e 5 109
e 5 111
e 5 114
e 5 115
e 5 117
e 5 119
e 5 120
e 5 125
e 5 128
e 5 131
e 5 133
e 5 134
e 5 137
e 6 30
e 6 32
e 6 34
e 6 37
e 6 38
e 6 45
e 6 47
e 6 49
e 6 65
e 6 66
e 6 79
e 6 81
e 6 94
e 6 97
e 6 107
e 6 108
e 6 109
e 6 124
e 6 129
e 7 30
e 7 31
e 7 32
e 7 33
e 7 34
e 7 35
e 7 36
e 7 37
e 7 38
e 7 39
e 7 40
e 7 43
e 7 45
e 7 48
e 7 51
e 7 52
e 7 54
e 7 56
e 7 57
e 7 58
e 7 60
e 7 61
e 7 63
e 7 68
e 7 69
e 7 70
e 7 73
e 7 79
e 7 81
e 7 86
e 7 90
e 7 95
e 7 99
e 7 100
e 7 106
e 7 111
e 7 135
e 7 138
e 8 30
e 8 31
e 8 32
e 8 33
e 8 34
e 8 35
e 8 36
e 8 37
e 8 39
e 8 40
e 8 41
e 8 44
e 8 46
e 8 47
e 8 49
e 8 51
e 8 52
e 8 54
e 8 55
e 8 56
e 8 59
e 8 62
e 8 63
e 8 70
e 8 72
e 8 73
e 8 76
e 8 77
e 8 86
e 8 98
e 8 105
e 8 127
e 9 30
e 9 31
e 9 32
e 9 34
e 9 37
e 9 41
e 9 46
e 9 49
e 9 50
e 9 55
e 9 56
e 9 58
e 9 62
e 9 66
e 9 82
e 9 84
e 9 87
e 9 90
e 9 93
e 9 95
e 9 97
e 9 98
e 9 99
e 9 100
e 9 114
e 9 117
e 9 123
e 9 136
e 10 30
e 10 31
e 10 32
e 10 33
e 10 35
e 10 37
e 10 39
e 10 40
e 10 41
e 10 42
e 10 43
e 10 44
e 10 48
e 10 50
e 10 51
e 10 52
e 10 60
e 10 63
e 10 68
e 10 72
e 10 74
e 10 75
e 10 78
e 10 83
e 10 88
e 10 90
e 10 91
e 10 92
e 10 107
e 10 108
e 10 111
e 10 125
e 10 126
e 10 129
e 10 134
e 11 30
e 11 31
e 11 32
e 11 33
e 11 34
e 11 35
e 11 36
e 11 37
e 11 39
e 11 40
e 11 42
e 11 45
e 11 47
e 11 48
e 11 50
e 11 56
e 11 57
e 11 58
e 11 59
e 11 62
e 11 76
e 11 82
e 11 83
e 11 86
e 11 95
e 11 101
e 11 104
e 11 107
e 11 110
e 11 113
e 11 115
e 11 116
e 11 120
e 11 121
e 11 123
e 11 133
e 11 140
e 12 30
e 12 31
e 12 32
e 12 33
e 12 34
e 12 35
e 12 36
e 12 38
e 12 40
e 12 41
e 12 42
e 12 43
e 12 44
e 12 45
e 12 48
e 12 50
e 12 54
e 12 57
e 12 58
e 12 60
e 12 61
e 12 63
e 12 66
e 12 70
e 12 73
e 12 81
e 12 87
e 12 91
e 12 95
e 12 106
e 12 124
e 12 129
e 13 30
e 13 31
e 13 32
e 13 33
e 13 34
e 13 37
e 13 38
e 13 39
e 13 41
e 13 43
e 13 47
e 13 50
e 13 53
e 13 54
e 13 55
e 13 60
e 13 63
e 13 65
e 13 72
e 13 75
e 13 76
e 13 78
e 13 80
e 13 81
e 13 83
e 13 86
e 13 90
e 13 97
e 13 99
e 13 100
e 13 107
e 13 112
e 13 114
e 13 116
e 13 119
e 13 121
e 13 123
e 13 124
e 13 125
e 13 126
e 13 127
e 13 129
e 13 133
e 13 136
e 13 139
e 14 33
e 14 34
e 14 35
e 14 36
e 14 39
e 14 40
e 14 41
e 14 42
e 14 44
e 14 45
e 14 46
e 14 47
e 14 52
e 14 55
e 14 58
e 14 62
e 14 66
e 14 71
e 14 75
e 14 76
e 14 78
e 14 79
e 14 82
e 14 89
e 14 95
e 14 96
e 14 105
e 14 109
e 14 116
e 14 117
e 14 132
e 15 30
e 15 31
e 15 32
e 15 33
e 15 34
e 15 35
e 15 36
e 15 37
e 15 38
e 15 39
e 15 40
e 15 41
e 15 42
e 15 43
e 15 44
e 15 46
e 15 48
e 15 49
e 15 52
e 15 55
e 15 57
e 15 59
e 15 61
e 15 65
e 15 69
e 15 71
e 15 73
e 15 74
e 15 75
e 15 78
e 15 80
e 15 83
e 15 85
e 15 86
e 15 91
e 15 94
e 15 99
e 15 109
e 15 114
e 15 117
e 15 140
e 16 30
e 16 31
e 16 32
e 16 35
e 16 37
e 16 38
e 16 39
e 16 42
e 16 43
e 16 44
e 16 46
e 16 49
e 16 50
e 16 51
e 16 52
e 16 53
e 16 54
e 16 56
e 16 60
e 16 61
e 16 63
e 16 65
e 16 66
e 16 67
e 16 71
e 16 78
e 16 79
e 16 81
e 16 84
e 16 85
e 16 89
e 16 93
e 16 97
e 16 98
e 16 103
e 16 105
e 16 106
e 16 111
e 16 121
e 16 122
e 16 123
e 16 124
e 16 125
e 16 128
e 16 129
e 16 131
e 16 138
e 16 140
e 17 30
e 17 31
e 17 32
e 17 33
e 17 34
e 17 35
e 17 36
e 17 37
e 17 38
e 17 39
e 17 40
e 17 42
e 17 44
e 17 45
e 17 47
e 17 49
e 17 50
e 17 52
e 17 54
e 17 55
e 17 57
e 17 60
e 17 61
e 17 63
e 17 65
e 17 66
e 17 70
e 17 71
e 17 73
e 17 74
e 17 77
e 17 82
e 17 83
e 17 85
e 17 87
e 17 90
e 17 96
e 17 97
e 17 98
e 17 105
e 17 108
e 17 112
e 17 114
e 17 119
e 17 120
e 17 123
e 17 125
e 17 126
e 17 129
e 17 134
e 17 135
e 17 136
e 17 138
e 18 30
e 18 31
e 18 32
e 18 33
e 18 35
e 18 36
e 18 37
e 18 38
e 18 39
e 18 40
e 18 41
e 18 44
e 18 46
e 18 47
e 18 48
e 18 49
e 18 50
e 18 53
e 18 55
e 18 61
e 18 63
e 18 65
e 18 70
e 18 71
e 18 73
e 18 74
e 18 85
e 18 87
e 18 89
e 18 92
e 18 106
e 18 108
e 18 110
e 18 111
e 18 117
e 18 118
e 18 121
e 18 126
e 18 127
e 18 136
e 19 30
e 19 31
e 19 32
e 19 33
e 19 34
e 19 35
e 19 36
e 19 37
e 19 38
e 19 40
e 19 42
e 19 43
e 19 44
e 19 45
e 19 46
e 19 60
e 19 62
e 19 65
e 19 66
e 19 67
e 19 69
e 19 76
e 19 78
e 19 83
e 19 85
e 19 100
e 19 119
e 19 122
e 19 135
e 20 30
e 20 31
e 20 32
e 20 33
e 20 34
e 20 36
e 20 38
e 20 42
e 20 43
e 20 45
e 20 46
e 20 55
e 20 61
e 20 64
e 20 67
e 20 81
e 20 91
e 20 108
e 20 112
e 20 125
e 20 132
e 20 137
e 20 140
e 21 30
e 21 31
e 21 32
e 21 33
e 21 34
e 21 35
e 21 36
e 21 38
e 21 39
e 21 40
e 21 41
e 21 43
e 21 46
e 21 48
e 21 49
e 21 54
e 21 57
e 21 61
e 21 62
e 21 63
e 21 64
e 21 80
e 21 85
e 21 88
e 21 94
e 21 105
e 21 106
e 21 113
e 21 115
e 21 120
e 21 129
e 21 133
e 22 30
e 22 31
e 22 32
e 22 33
e 22 34
e 22 35
e 22 36
e 22 37
e 22 38
e 22 39
e 22 40
e 22 41
e 22 42
e 22 43
e 22 44
e 22 45
e 22 47
e 22 51
e 22 55
e 22 56
e 22 57
e 22 59
e 22 60
e 22 64
e 22 65
e 22 68
e 22 69
e 22 71
e 22 74
e 22 75
e 22 76
e 22 88
e 22 92
e 22 93
e 22 101
e 22 115
e 22 123
e 22 125
e 22 126
e 22 132
e 22 133
e 22 135
e 23 30
e 23 31
e 23 32
e 23 33
e 23 34
e 23 35
e 23 36
e 23 39
e 23 40
e 23 41
e 23 43
e 23 44
e 23 47
e 23 48
e 23 50
e 23 51
e 23 52
e 23 53
e 23 54
e 23 60
e 23 61
e 23 64
e 23 66
e 23 67
e 23 71
e 23 72
e 23 75
e 23 76
e 23 77
e 23 80
e 23 81
e 23 83
e 23 84
e 23 86
e 23 90
e 23 92
e 23 100
e 23 101
e 23 105
e 23 106
e 23 111
e 23 115
e 23 116
e 23 117
e 23 118
e 23 122
e 23 123
e 23 134
e 23 140
e 24 30
e 24 31
e 24 36
e 24 37
e 24 38
e 24 39
e 24 42
e 24 43
e 24 47
e 24 53
e 24 62
e 24 75
e 24 78
e 24 91
e 24 98
e 24 105
e 24 110
e 24 118
e 24 124
e 24 131
e 24 133
e 24 134
e 25 30
e 25 31
e 25 32
e 25 33
e 25 34
e 25 35
e 25 36
e 25 39
e 25 41
e 25 42
e 25 46
e 25 48
e 25 50
e 25 52
e 25 57
e 25 58
e 25 61
e 25 62
e 25 64
e 25 65
e 25 66
e 25 68
e 25 72
e 25 80
e 25 81
e 25 91
e 25 97
e 25 116
e 25 119
e 25 121
e 25 122
e 25 125
e 25 130
e 25 133
e 25 136
e 26 30
e 26 31
e 26 33
e 26 34
e 26 35
e 26 36
e 26 40
e 26 41
e 26 42
e 26 43
e 26 45
e 26 48
e 26 49
e 26 51
e 26 52
e 26 53
e 26 54
e 26 55
e 26 59
e 26 60
e 26 66
e 26 67
e 26 70
e 26 71
e 26 75
e 26 79
e 26 80
e 26 85
e 26 86
e 26 89
e 26 90
e 26 91
e 26 93
e 26 97
e 26 100
e 26 110
e 26 114
e 26 115
e 26 132
e 26 133
e 26 134
e 26 140
e 27 30
e 27 31
e 27 32
e 27 33
e 27 34
e 27 35
e 27 36
e 27 37
e 27 38
e 27 39
e 27 40
e 27 42
e 27 43
e 27 44
e 27 47
e 27 49
e 27 51
e 27 53
e 27 59
e 27 60
e 27 71
e 27 72
e 27 75
e 27 90
e 27 96
e 27 99
e 27 102
e 27 115
e 27 119
e 27 126
e 28 30
e 28 31
e 28 32
e 28 33
e 28 34
e 28 35
e 28 36
e 28 37
e 28 38
e 28 41
e 28 46
e 28 49
e 28 50
e 28 51
e 28 54
e 28 55
e 28 56
e 28 57
e 28 58
e 28 64
e 28 67
e 28 70
e 28 75
e 28 77
e 28 78
e 28 79
e 28 85
e 28 93
e 28 96
e 28 102
e 28 114
e 28 118
e 28 122
e 28 133
e 29 30
e 29 31
e 29 32
e 29 33
e 29 34
e 29 37
e 29 39
e 29 40
e 29 41
e 29 52
e 29 56
e 29 59
e 29 65
e 29 67
e 29 78
e 29 85
e 29 101
e 29 104
e 29 109
e 29 124
e 30 31
e 30 32
e 30 33
e 30 34
e 30 35
e 30 36
e 30 37
e 30 38
e 30 39
e 30 40
e 30 41
e 30 42
e 30 43
e 30 44
e 30 45
e 30 46
e 30 47
e 30 48
e 30 49
e 30 50
e 30 51
e 30 53
e 30 54
e 30 55
e 30 56
e 30 58
e 30 59
e 30 61
e 30 62
e 30 63
e 30 65
e 30 66
e 30 67
e 30 68
e 30 73
e 30 74
e 30 75
e 30 79
e 30 80
e 30 81
e 30 83
e 30 86
e 30 87
e 30 90
e 30 91
e 30 93
e 30 94
e 30 96
e 30 97
e 30 100
e 30 104
e 30 105
e 30 106
e 30 110
e 30 111
e 30 112
e 30 113
e 30 114
e 30 115
e 30 117
e 30 126
e 30 138
e 31 32
e 31 33
e 31 34
e 31 35
e 31 36
e 31 37
e 31 38
e 31 39
e 31 40
e 31 41
e 31 42
e 31 43
e 31 44
e 31 45
e 31 47
e 31 48
e 31 49
e 31 51
e 31 52
e 31 53
e 31 54
e 31 56
e 31 57
e 31 58
e 31 59
e 31 60
e 31 61
e 31 63
e 31 64
e 31 66
e 31 68
e 31 69
e 31 70
e 31 71
e 31 72
e 31 73
e 31 74
e 31 75
e 31 77
e 31 79
e 31 80
e 31 81
e 31 82
e 31 84
e 31 85
e 31 87
e 31 91
e 31 93
e 31 94
e 31 101
e 31 102
e 31 103
e 31 104
e 31 115
e 31 116
e 31 121
e 31 122
e 31 124
e 31 132
e 31 136
e 31 138
e 31 139
e 32 33
e 32 34
e 32 35
e 32 36
e 32 37
e 32 38
e 32 39
e 32 40
e 32 41
e 32 42
e 32 43
e 32 44
e 32 45
e 32 46
e 32 47
e 32 48
e 32 49
e 32 50
e 32 52
e 32 53
e 32 54
e 32 55
e 32 56
e 32 57
e 32 58
e 32 59
e 32 60
e 32 62
e 32 65
e 32 66
e 32 69
e 32 70
e 32 71
e 32 72
e 32 74
e 32 75
e 32 76
e 32 80
e 32 81
e 32 84
e 32 87
e 32 88
e 32 91
e 32 94
e 32 97
e 32 99
e 32 100
e 32 103
e 32 106
e 32 109
e 32 112
e 32 116
e 32 119
e 32 121
e 32 122
e 32 123
e 32 126
e 32 127
e 32 129
e 32 131
e 32 132
e 32 133
e 32 135
e 32 136
e 32 137
e 32 139
e 32 140
e 33 34
e 33 35
e 33 36
e 33 37
e 33 38
e 33 39
e 33 40
e 33 41
e 33 42
e 33 43
e 33 44
e 33 45
e 33 46
e 33 47
e 33 48
e 33 50
e 33 51
e 33 52
e 33 54
e 33 55
e 33 56
e 33 57
e 33 58
e 33 59
e 33 60
e 33 61
e 33 63
e 33 64
e 33 66
e 33 67
e 33 68
e 33 69
e 33 70
e 33 72
e 33 73
e 33 74
e 33 76
e 33 77
e 33 78
e 33 79
e 33 80
e 33 81
e 33 82
e 33 84
e 33 88
e 33 89
e 33 90
e 33 92
e 33 93
e 33 94
e 33 96
e 33 98
e 33 99
e 33 100
e 33 101
e 33 104
e 33 106
e 33 109
e 33 110
e 33 113
e 33 114
e 33 115
e 33 116
e 33 118
e 33 119
e 33 120
e 33 123
e 33 126
e 33 128
e 33 129
e 33 130
e 33 131
e 33 133
e 33 135
e 33 138
e 33 139
e 34 35
e 34 36
e 34 37
e 34 38
e 34 39
e 34 40
e 34 41
e 34 42
e 34 43
e 34 45
e 34 46
e 34 47
e 34 48
e 34 49
e 34 50
e 34 52
e 34 53
e 34 55
e 34 56
e 34 57
e 34 58
e 34 60
e 34 62
e 34 63
e 34 67
e 34 68
e 34 71
e 34 77
e 34 79
e 34 82
e 34 89
e 34 90
e 34 91
e 34 92
e 34 93
e 34 95
e 34 96
e 34 97
e 34 99
e 34 104
e 34 107
e 34 108
e 34 113
e 34 114
e 34 115
e 34 119
e 34 120
e 34 121
e 34 124
e 34 125
e 34 126
e 34 127
e 34 131
e 34 132
e 34 133
e 34 134
e 34 136
e 34 137
e 34 139
e 35 36
e 35 37
e 35 38
e 35 39
e 35 40
e 35 41
e 35 43
e 35 44
e 35 45
e 35 46
e 35 47
e 35 48
e 35 49
e 35 50
e 35 51
e 35 53
e 35 54
e 35 55
e 35 58
e 35 59
e 35 60
e 35 64
e 35 66
e 35 67
e 35 68
e 35 69
e 35 70
e 35 71
e 35 72
e 35 73
e 35 74
e 35 78
e 35 79
e 35 80
e 35 81
e 35 83
e 35 85
e 35 87
e 35 88
e 35 92
e 35 93
e 35 94
e 35 97
e 35 99
e 35 100
e 35 101
e 35 105
e 35 107
e 35 111
e 35 113
e 35 115
e 35 116
e 35 122
e 35 123
e 35 125
e 35 127
e 35 128
e 35 129
e 35 130
e 35 138
e 36 37
e 36 38
e 36 39
e 36 41
e 36 43
e 36 44
e 36 45
e 36 46
e 36 47
e 36 48
e 36 49
e 36 51
e 36 52
e 36 54
e 36 57
e 36 61
e 36 62
e 36 65
e 36 66
e 36 69
e 36 71
e 36 74
e 36 75
e 36 80
e 36 82
e 36 83
e 36 84
e 36 85
e 36 88
e 36 89
e 36 90
e 36 93
e 36 95
e 36 96
e 36 98
e 36 105
e 36 106
e 36 107
e 36 110
e 36 113
e 36 115
e 36 116
e 36 119
e 36 120
e 36 121
e 36 125
e 36 128
e 36 129
e 36 130
e 36 135
e 36 139
e 37 38
e 37 39
e 37 40
e 37 41
e 37 42
e 37 43
e 37 44
e 37 45
e 37 46
e 37 47
e 37 48
e 37 49
e 37 50
e 37 51
e 37 52
e 37 53
e 37 54
e 37 56
e 37 57
e 37 59
e 37 60
e 37 61
e 37 62
e 37 63
e 37 64
e 37 66
e 37 67
e 37 68
e 37 73
e 37 74
e 37 78
e 37 79
e 37 83
e 37 86
e 37 87
e 37 88
e 37 89
e 37 91
e 37 92
e 37 98
e 37 100
e 37 101
e 37 106
e 37 107
e 37 108
e 37 111
e 37 117
e 37 119
e 37 120
e 37 122
e 37 124
e 37 125
e 37 126
e 37 137
e 38 39
e 38 40
e 38 41
e 38 42
e 38 43
e 38 44
e 38 45
e 38 46
e 38 47
e 38 48
e 38 49
e 38 50
e 38 51
e 38 52
e 38 53
e 38 55
e 38 56
e 38 59
e 38 64
e 38 66
e 38 67
e 38 69
e 38 70
e 38 71
e 38 75
e 38 78
e 38 80
e 38 81
e 38 82
e 38 83
e 38 86
e 38 94
e 38 95
e 38 96
e 38 99
e 38 102
e 38 110
e 38 111
e 38 112
e 38 113
e 38 114
e 38 117
e 38 120
e 38 126
e 38 131
e 38 132
e 38 134
e 39 40
e 39 41
e 39 42
e 39 43
e 39 44
e 39 45
e 39 46
e 39 47
e 39 48
e 39 49
e 39 50
e 39 51
e 39 52
e 39 53
e 39 54
e 39 57
e 39 58
e 39 61
e 39 62
e 39 63
e 39 64
e 39 66
e 39 67
e 39 68
e 39 69
e 39 70
e 39 71
e 39 75
e 39 76
e 39 77
e 39 78
e 39 79
e 39 80
e 39 83
e 39 86
e 39 90
e 39 92
e 39 93
e 39 94
e 39 99
e 39 100
e 39 101
e 39 102
e 39 103
e 39 105
e 39 107
e 39 108
e 39 111
e 39 114
e 39 115
e 39 116
e 39 120
e 39 121
e 39 122
e 39 126
e 39 132
e 39 135
e 39 137
e 39 138
e 39 139
e 40 42
e 40 43
e 40 44
e 40 45
e 40 46
e 40 47
e 40 48
e 40 49
e 40 51
e 40 52
e 40 53
e 40 54
e 40 55
e 40 56
e 40 57
e 40 58
e 40 59
e 40 62
e 40 63
e 40 64
e 40 65
e 40 67
e 40 73
e 40 74
e 40 76
e 40 77
e 40 79
e 40 81
e 40 83
e 40 86
e 40 87
e 40 89
e 40 92
e 40 95
e 40 98
e 40 99
e 40 101
e 40 104
e 40 105
e 40 109
e 40 110
e 40 112
e 40 123
e 40 127
e 40 128
e 40 129
e 40 132
e 40 138
e 40 140
e 41 42
e 41 44
e 41 46
e 41 48
e 41 49
e 41 50
e 41 51
e 41 52
e 41 53
e 41 54
e 41 56
e 41 57
e 41 58
e 41 59
e 41 61
e 41 62
e 41 63
e 41 64
e 41 66
e 41 67
e 41 68
e 41 71
e 41 72
e 41 73
e 41 76
e 41 77
e 41 79
e 41 81
e 41 84
e 41 87
e 41 89
e 41 91
e 41 97
e 41 98
e 41 100
e 41 101
e 41 102
e 41 103
e 41 106
e 41 107
e 41 108
e 41 109
e 41 111
e 41 115
e 41 117
e 41 118
e 41 126
e 41 129
e 41 130
e 41 131
e 41 134
e 41 138
e 42 43
e 42 44
e 42 45
e 42 46
e 42 48
e 42 49
e 42 50
e 42 51
e 42 52
e 42 53
e 42 55
e 42 56
e 42 58
e 42 59
e 42 61
e 42 62
e 42 64
e 42 65
e 42 66
e 42 69
e 42 70
e 42 71
e 42 72
e 42 77
e 42 83
e 42 85
e 42 86
e 42 87
e 42 88
e 42 92
e 42 98
e 42 102
e 42 103
e 42 107
e 42 108
e 42 110
e 42 111
e 42 113
e 42 117
e 42 120
e 42 121
e 42 125
e 42 129
e 42 134
e 42 135
e 42 136
e 43 45
e 43 46
e 43 47
e 43 48
e 43 51
e 43 52
e 43 53
e 43 54
e 43 55
e 43 56
e 43 57
e 43 58
e 43 62
e 43 64
e 43 65
e 43 67
e 43 69
e 43 71
e 43 72
e 43 73
e 43 74
e 43 76
e 43 77
e 43 78
e 43 81
e 43 82
e 43 85
e 43 88
e 43 93
e 43 94
e 43 97
e 43 101
e 43 102
e 43 106
e 43 107
e 43 109
e 43 110
e 43 111
e 43 112
e 43 114
e 43 116
e 43 117
e 43 118
e 43 125
e 43 126
e 43 128
e 43 130
e 43 131
e 43 134
e 43 135
e 43 136
e 43 138
e 44 45
e 44 46
e 44 49
e 44 50
e 44 51
e 44 54
e 44 56
e 44 63
e 44 64
e 44 65
e 44 67
e 44 68
e 44 69
e 44 70
e 44 72
e 44 73
e 44 82
e 44 88
e 44 89
e 44 93
e 44 94
e 44 99
e 44 104
e 44 105
e 44 113
e 44 121
e 44 125
e 44 127
e 45 46
e 45 47
e 45 49
e 45 50
e 45 51
e 45 53
e 45 54
e 45 55
e 45 56
e 45 58
e 45 59
e 45 61
e 45 62
e 45 64
e 45 65
e 45 67
e 45 73
e 45 75
e 45 76
e 45 80
e 45 84
e 45 85
e 45 86
e 45 88
e 45 91
e 45 93
e 45 94
e 45 97
e 45 102
e 45 103
e 45 104
e 45 107
e 45 109
e 45 111
e 45 116
e 45 117
e 45 120
e 45 124
e 45 125
e 45 126
e 45 135
e 46 47
e 46 48
e 46 49
e 46 50
e 46 51
e 46 55
e 46 56
e 46 58
e 46 60
e 46 67
e 46 69
e 46 71
e 46 72
e 46 76
e 46 77
e 46 78
e 46 82
e 46 84
e 46 85
e 46 86
e 46 88
e 46 90
e 46 92
e 46 97
e 46 98
e 46 101
e 46 113
e 46 114
e 46 118
e 46 120
e 46 121
e 46 131
e 46 133
e 46 139
e 47 50
e 47 51
e 47 53
e 47 56
e 47 57
e 47 58
e 47 59
e 47 63
e 47 64
e 47 69
e 47 73
e 47 75
e 47 76
e 47 77
e 47 78
e 47 79
e 47 80
e 47 81
e 47 84
e 47 86
e 47 87
e 47 90
e 47 94
e 47 98
e 47 99
e 47 100
e 47 101
e 47 105
e 47 106
e 47 107
e 47 110
e 47 113
e 47 116
e 47 118
e 47 122
e 47 123
e 47 128
e 47 131
e 47 137
e 47 139
e 48 49
e 48 50
e 48 52
e 48 53
e 48 54
e 48 55
e 48 57
e 48 59
e 48 60
e 48 61
e 48 63
e 48 68
e 48 72
e 48 80
e 48 82
e 48 83
e 48 84
e 48 87
e 48 88
e 48 91
e 48 95
e 48 99
e 48 101
e 48 104
e 48 105
e 48 107
e 48 108
e 48 113
e 48 115
e 48 117
e 48 122
e 48 123
e 48 140
e 49 51
e 49 52
e 49 54
e 49 55
e 49 57
e 49 58
e 49 62
e 49 63
e 49 64
e 49 65
e 49 66
e 49 67
e 49 68
e 49 69
e 49 70
e 49 73
e 49 74
e 49 76
e 49 77
e 49 81
e 49 82
e 49 83
e 49 87
e 49 89
e 49 91
e 49 92
e 49 95
e 49 103
e 49 112
e 49 119
e 49 121
e 49 127
e 49 130
e 49 132
e 49 133
e 50 51
e 50 52
e 50 53
e 50 54
e 50 55
e 50 56
e 50 58
e 50 59
e 50 62
e 50 63
e 50 64
e 50 65
e 50 66
e 50 69
e 50 74
e 50 75
e 50 76
e 50 78
e 50 79
e 50 80
e 50 83
e 50 86
e 50 90
e 50 91
e 50 92
e 50 94
e 50 96
e 50 97
e 50 99
e 50 104
e 50 106
e 50 110
e 50 114
e 50 116
e 50 118
e 50 123
e 50 126
e 50 127
e 50 128
e 50 131
e 50 133
e 50 134
e 50 137
e 50 139
e 51 53
e 51 62
e 51 63
e 51 64
e 51 68
e 51 69
e 51 71
e 51 74
e 51 77
e 51 82
e 51 83
e 51 88
e 51 89
e 51 92
e 51 94
e 51 95
e 51 96
e 51 99
e 51 100
e 51 104
e 51 105
e 51 110
e 51 116
e 51 119
e 51 122
e 51 126
e 51 127
e 51 129
e 51 131
e 51 137
e 51 138
e 51 139
e 52 53
e 52 54
e 52 55
e 52 56
e 52 58
e 52 60
e 52 61
e 52 65
e 52 68
e 52 72
e 52 76
e 52 77
e 52 79
e 52 82
e 52 83
e 52 90
e 52 91
e 52 94
e 52 97
e 52 98
e 52 103
e 52 104
e 52 105
e 52 107
e 52 111
e 52 112
e 52 121
e 52 126
e 52 134
e 52 136
e 52 138
e 52 140
e 53 56
e 53 57
e 53 58
e 53 59
e 53 60
e 53 61
e 53 62
e 53 64
e 53 66
e 53 68
e 53 70
e 53 72
e 53 75
e 53 78
e 53 80
e 53 84
e 53 85
e 53 86
e 53 92
e 53 93
e 53 94
e 53 95
e 53 96
e 53 98
e 53 103
e 53 109
e 53 118
e 53 119
e 53 128
e 53 129
e 53 136
e 53 140
e 54 55
e 54 59
e 54 60
e 54 61
e 54 67
e 54 70
e 54 72
e 54 73
e 54 74
e 54 75
e 54 82
e 54 84
e 54 87
e 54 88
e 54 95
e 54 96
e 54 98
e 54 100
e 54 101
e 54 104
e 54 105
e 54 111
e 54 113
e 54 115
e 54 118
e 54 120
e 54 124
e 54 125
e 54 135
e 54 137
e 54 139
e 54 140
e 55 60
e 55 61
e 55 64
e 55 65
e 55 66
e 55 69
e 55 70
e 55 71
e 55 72
e 55 75
e 55 76
e 55 77
e 55 80
e 55 81
e 55 82
e 55 84
e 55 86
e 55 87
e 55 88
e 55 93
e 55 96
e 55 102
e 55 103
e 55 104
e 55 109
e 55 111
e 55 117
e 55 118
e 55 119
e 55 120
e 55 122
e 55 129
e 55 130
e 55 140
e 56 57
e 56 59
e 56 63
e 56 65
e 56 68
e 56 70
e 56 72
e 56 73
e 56 75
e 56 76
e 56 77
e 56 80
e 56 83
e 56 86
e 56 87
e 56 89
e 56 90
e 56 93
e 56 96
e 56 98
e 56 103
e 56 106
e 56 109
e 56 112
e 56 120
e 56 123
e 56 127
e 56 128
e 56 129
e 56 134
e 56 135
e 56 139
e 57 58
e 57 60
e 57 61
e 57 62
e 57 64
e 57 65
e 57 67
e 57 68
e 57 70
e 57 71
e 57 77
e 57 78
e 57 79
e 57 81
e 57 82
e 57 84
e 57 92
e 57 93
e 57 104
e 57 108
e 57 109
e 57 110
e 57 113
e 57 117
e 57 120
e 57 124
e 57 127
e 57 128
e 57 129
e 57 130
e 57 133
e 57 137
e 57 140
e 58 62
e 58 68
e 58 69
e 58 75
e 58 79
e 58 80
e 58 83
e 58 84
e 58 91
e 58 93
e 58 95
e 58 97
e 58 100
e 58 102
e 58 105
e 58 108
e 58 111
e 58 116
e 58 118
e 58 121
e 58 128
e 58 131
e 58 140
e 59 60
e 59 61
e 59 62
e 59 65
e 59 66
e 59 68
e 59 71
e 59 72
e 59 80
e 59 83
e 59 84
e 59 85
e 59 86
e 59 87
e 59 88
e 59 94
e 59 95
e 59 97
e 59 98
e 59 106
e 59 107
e 59 108
e 59 113
e 59 114
e 59 120
e 59 124
e 59 135
e 59 136
e 60 63
e 60 66
e 60 72
e 60 75
e 60 76
e 60 82
e 60 85
e 60 88
e 60 95
e 60 97
e 60 98
e 60 107
e 60 109
e 60 110
e 60 116
e 60 120
e 60 122
e 60 125
e 60 136
e 60 137
e 60 139
e 61 62
e 61 64
e 61 65
e 61 66
e 61 69
e 61 72
e 61 78
e 61 79
e 61 81
e 61 82
e 61 85
e 61 89
e 61 90
e 61 93
e 61 98
e 61 100
e 61 103
e 61 104
e 61 109
e 61 112
e 61 113
e 61 115
e 61 121
e 61 124
e 61 128
e 61 131
e 61 134
e 62 63
e 62 67
e 62 68
e 62 70
e 62 76
e 62 77
e 62 84
e 62 87
e 62 88
e 62 90
e 62 93
e 62 95
e 62 99
e 62 101
e 62 103
e 62 108
e 62 114
e 62 118
e 62 122
e 62 125
e 62 128
e 62 130
e 62 132
e 62 136
e 62 137
e 62 140
e 63 68
e 63 72
e 63 73
e 63 74
e 63 79
e 63 80
e 63 81
e 63 83
e 63 85
e 63 98
e 63 99
e 63 100
e 63 102
e 63 103
e 63 111
e 63 113
e 63 116
e 63 119
e 63 121
e 63 122
e 63 123
e 63 127
e 63 130
e 63 134
e 64 65
e 64 69
e 64 70
e 64 71
e 64 74
e 64 76
e 64 77
e 64 78
e 64 82
e 64 84
e 64 86
e 64 88
e 64 89
e 64 96
e 64 97
e 64 98
e 64 101
e 64 109
e 64 111
e 64 112
e 64 115
e 64 117
e 64 120
e 64 123
e 64 126
e 64 132
e 64 134
e 65 67
e 65 69
e 65 71
e 65 73
e 65 75
e 65 76
e 65 77
e 65 79
e 65 88
e 65 94
e 65 95
e 65 100
e 65 103
e 65 109
e 65 110
e 65 116
e 65 119
e 65 120
e 65 125
e 65 130
e 65 133
e 65 135
e 65 137
e 65 138
e 66 69
e 66 70
e 66 74
e 66 81
e 66 93
e 66 95
e 66 98
e 66 102
e 66 105
e 66 107
e 66 113
e 66 116
e 66 119
e 66 124
e 66 133
e 66 134
e 66 135
e 67 68
e 67 71
e 67 74
e 67 75
e 67 78
e 67 82
e 67 86
e 67 89
e 67 92
e 67 96
e 67 97
e 67 115
e 67 122
e 67 128
e 67 130
e 67 132
e 67 134
e 68 70
e 68 72
e 68 73
e 68 74
e 68 77
e 68 85
e 68 89
e 68 101
e 68 102
e 68 103
e 68 109
e 68 112
e 68 114
e 68 115
e 68 118
e 68 125
e 68 126
e 68 130
e 68 131
e 68 137
e 68 138
e 69 70
e 69 71
e 69 73
e 69 76
e 69 80
e 69 81
e 69 84
e 69 86
e 69 94
e 69 99
e 69 102
e 69 103
e 69 104
e 69 107
e 69 110
e 69 118
e 69 120
e 69 128
e 69 138
e 70 72
e 70 74
e 70 81
e 70 82
e 70 88
e 70 90
e 70 98
e 70 101
e 70 102
e 70 104
e 70 106
e 70 117
e 70 130
e 70 133
e 71 73
e 71 78
e 71 79
e 71 80
e 71 88
e 71 91
e 71 92
e 71 93
e 71 96
e 71 100
e 71 104
e 71 113
e 71 120
e 71 127
e 71 128
e 71 129
e 72 74
e 72 84
e 72 87
e 72 88
e 72 91
e 72 92
e 72 100
e 72 106
e 72 107
e 72 109
e 72 114
e 72 116
e 72 128
e 72 140
e 73 84
e 73 87
e 73 90
e 73 91
e 73 92
e 73 94
e 73 95
e 73 99
e 73 101
e 73 102
e 73 108
e 73 111
e 73 114
e 73 124
e 73 127
e 73 129
e 73 132
e 73 134
e 73 136
e 74 77
e 74 78
e 74 79
e 74 82
e 74 83
e 74 84
e 74 85
e 74 89
e 74 90
e 74 101
e 74 104
e 74 107
e 74 109
e 74 110
e 74 118
e 74 121
e 74 124
e 74 125
e 74 127
e 74 129
e 74 130
e 74 134
e 74 137
e 75 77
e 75 81
e 75 83
e 75 87
e 75 90
e 75 93
e 75 94
e 75 96
e 75 102
e 75 108
e 75 109
e 75 112
e 75 116
e 75 117
e 75 119
e 75 138
e 76 79
e 76 84
e 76 86
e 76 89
e 76 92
e 76 94
e 76 98
e 76 100
e 76 102
e 76 104
e 76 111
e 76 115
e 76 117
e 76 119
e 76 121
e 76 132
e 77 79
e 77 95
e 77 96
e 77 103
e 77 111
e 77 113
e 77 118
e 77 120
e 77 122
e 77 132
e 77 133
e 77 134
e 77 138
e 77 140
e 78 82
e 78 83
e 78 84
e 78 96
e 78 98
e 78 99
e 78 100
e 78 101
e 78 103
e 78 104
e 78 108
e 78 115
e 78 121
e 78 126
e 78 128
e 78 129
e 78 130
e 78 136
e 78 137
e 78 138
e 79 85
e 79 97
e 79 99
e 79 103
e 79 110
e 79 112
e 79 115
e 79 124
e 79 133
e 80 87
e 80 89
e 80 90
e 80 92
e 80 96
e 80 111
e 80 115
e 80 123
e 80 131
e 80 137
e 81 82
e 81 85
e 81 87
e 81 91
e 81 92
e 81 97
e 81 101
e 81 103
e 81 104
e 81 137
e 81 139
e 82 85
e 82 88
e 82 89
e 82 91
e 82 96
e 82 101
e 82 106
e 82 109
e 82 121
e 82 126
e 82 128
e 82 129
e 82 130
e 82 132
e 82 136
e 82 137
e 82 140
e 83 85
e 83 92
e 83 93
e 83 104
e 83 108
e 83 114
e 83 120
e 83 124
e 83 127
e 83 132
e 83 133
e 84 86
e 84 89
e 84 91
e 84 96
e 84 97
e 84 99
e 84 102
e 84 105
e 84 109
e 84 126
e 84 129
e 84 130
e 84 136
e 85 90
e 85 91
e 85 95
e 85 96
e 85 106
e 85 112
e 85 122
e 85 124
e 85 140
e 86 96
e 86 98
e 86 103
e 86 108
e 86 117
e 86 124
e 86 129
e 86 131
e 86 133
e 87 89
e 87 90
e 87 96
e 87 117
e 87 124
e 87 125
e 87 137
e 87 140
e 88 89
e 88 92
e 88 93
e 88 94
e 88 95
e 88 96
e 88 105
e 88 108
e 88 114
e 88 117
e 88 118
e 88 120
e 88 121
e 88 125
e 88 127
e 88 135
e 88 136
e 89 92
e 89 102
e 89 112
e 89 120
e 89 123
e 89 132
e 89 139
e 90 94
e 90 108
e 90 116
e 90 117
e 90 125
e 90 137
e 91 95
e 91 99
e 91 101
e 91 102
e 91 103
e 91 110
e 91 112
e 91 130
e 91 133
e 91 134
e 92 95
e 92 105
e 92 108
e 92 110
e 92 114
e 92 116
e 92 130
e 92 134
e 92 135
e 93 104
e 93 106
e 93 108
e 93 110
e 93 112
e 93 113
e 93 123
e 93 128
e 93 140
e 94 99
e 94 100
e 94 101
e 94 104
e 94 105
e 94 114
e 94 121
e 94 124
e 94 133
e 94 135
e 94 136
e 94 137
e 94 138
e 95 99
e 95 103
e 95 107
e 95 108
e 95 114
e 95 117
e 95 132
e 96 97
e 96 103
e 96 106
e 96 108
e 96 113
e 96 119
e 96 122
e 96 124
e 96 131
e 96 134
e 96 135
e 97 98
e 97 102
e 97 103
e 97 105
e 97 106
e 97 107
e 97 108
e 97 116
e 97 119
e 97 123
e 97 127
e 97 128
e 97 139
e 98 100
e 98 102
e 98 106
e 98 107
e 98 111
e 98 118
e 98 119
e 98 128
e 98 134
e 98 139
e 99 102
e 99 105
e 99 106
e 99 109
e 99 118
e 99 125
e 99 127
e 99 130
e 99 135
e 100 102
e 100 103
e 100 105
e 100 106
e 100 110
e 100 112
e 100 117
e 100 132
e 100 135
e 101 110
e 101 122
e 101 131
e 101 139
e 102 106
e 102 110
e 102 112
e 102 113
e 102 119
e 102 130
e 102 138
e 102 140
e 103 110
e 103 112
e 103 125
e 103 138
e 103 140
e 104 112
e 104 114
e 104 119
e 105 116
e 105 118
e 105 124
e 105 128
e 105 137
e 106 108
e 106 115
e 106 118
e 106 135
e 106 136
e 107 110
e 107 111
e 107 112
e 107 115
e 107 119
e 107 122
e 107 124
e 107 127
e 107 135
e 108 109
e 108 113
e 108 114
e 108 122
e 108 127
e 108 131
e 109 112
e 109 119
e 109 122
e 109 127
e 109 128
e 109 133
e 109 135
e 109 140
e 110 111
e 110 124
e 110 126
e 110 136
e 111 112
e 111 113
e 111 116
e 111 118
e 111 122
e 111 123
e 111 136
e 111 139
e 112 121
e 112 122
e 112 131
e 112 138
e 113 122
e 113 127
e 114 117
e 114 140
e 115 132
e 115 133
e 115 134
e 116 118
e 116 131
e 116 132
e 116 140
e 117 121
e 117 123
e 117 129
e 117 130
e 117 132
e 117 139
e 118 127
e 118 128
e 118 131
e 118 135
e 118 139
e 119 120
e 119 123
e 119 136
e 119 138
e 120 123
e 120 138
e 121 123
e 121 130
e 122 126
e 122 127
e 122 130
e 123 125
e 123 126
e 123 131
e 123 132
e 124 138
e 125 138
e 125 139
e 126 131
e 127 128
e 127 137
e 128 133
e 128 138
e 129 131
e 130 140
e 133 136
e 134 139
e 135 136
e 135 139
e 136 139
e 137 139
